
n_res = 8;
rcap = [140, 161, 162, 135, 1704, 1606, 1632, 1732];
rtype = [1, 1, 1, 1, 2, 2, 2, 2];
n_tasks = 100;
modes =  [{1, 2, 3}, {4, 5, 6}, {7, 8, 9}, {10, 11, 12}, {13, 14, 15}, {16, 17, 18}, {19, 20, 21}, {22, 23, 24}, {25, 26, 27}, {28, 29, 30}, {31, 32, 33}, {34, 35, 36}, {37, 38, 39}, {40, 41, 42}, {43, 44, 45}, {46, 47, 48}, {49, 50, 51}, {52, 53, 54}, {55, 56, 57}, {58, 59, 60}, {61, 62, 63}, {64, 65, 66}, {67, 68, 69}, {70, 71, 72}, {73, 74, 75}, {76, 77, 78}, {79, 80, 81}, {82, 83, 84}, {85, 86, 87}, {88, 89, 90}, {91, 92, 93}, {94, 95, 96}, {97, 98, 99}, {100, 101, 102}, {103, 104, 105}, {106, 107, 108}, {109, 110, 111}, {112, 113, 114}, {115, 116, 117}, {118, 119, 120}, {121, 122, 123}, {124, 125, 126}, {127, 128, 129}, {130, 131, 132}, {133, 134, 135}, {136, 137, 138}, {139, 140, 141}, {142, 143, 144}, {145, 146, 147}, {148, 149, 150}, {151, 152, 153}, {154, 155, 156}, {157, 158, 159}, {160, 161, 162}, {163, 164, 165}, {166, 167, 168}, {169, 170, 171}, {172, 173, 174}, {175, 176, 177}, {178, 179, 180}, {181, 182, 183}, {184, 185, 186}, {187, 188, 189}, {190, 191, 192}, {193, 194, 195}, {196, 197, 198}, {199, 200, 201}, {202, 203, 204}, {205, 206, 207}, {208, 209, 210}, {211, 212, 213}, {214, 215, 216}, {217, 218, 219}, {220, 221, 222}, {223, 224, 225}, {226, 227, 228}, {229, 230, 231}, {232, 233, 234}, {235, 236, 237}, {238, 239, 240}, {241, 242, 243}, {244, 245, 246}, {247, 248, 249}, {250, 251, 252}, {253, 254, 255}, {256, 257, 258}, {259, 260, 261}, {262, 263, 264}, {265, 266, 267}, {268, 269, 270}, {271, 272, 273}, {274, 275, 276}, {277, 278, 279}, {280, 281, 282}, {283, 284, 285}, {286, 287, 288}, {289, 290, 291}, {292, 293, 294}, {295, 296, 297}, {298, 299, 300}];
succ =  [{28, 17, 15, 13, 11, 9}, {28, 27, 24, 23, 21, 17, 16, 13}, {28, 27, 25, 24, 23, 17, 13, 9}, {28, 27, 25, 24, 17, 15, 9}, {28, 24, 23, 22, 20, 18, 16, 12}, {28, 24, 21, 17, 16, 13}, {27, 25, 24, 17, 15, 13}, {31, 29, 28, 27, 25, 24, 20}, {34, 33, 22, 21, 20, 18}, {25, 22, 21, 20, 18}, {34, 29, 27, 25, 22, 21}, {34, 33, 32, 29, 27, 26, 21}, {34, 30, 22, 20, 18}, {39, 38, 36, 32, 30, 29, 24}, {37, 32, 31, 30, 23}, {31, 30, 26, 25}, {37, 35, 34, 33, 32, 31, 26}, {37, 35, 32, 31, 29, 26}, {34, 29, 21}, {39, 37, 32, 26}, {42, 38, 36, 31, 30}, {48, 47, 46, 40, 37, 36, 32}, {51, 44, 40, 38, 36, 34, 33}, {47, 46, 40, 37, 35, 34}, {40, 37, 35, 33, 32}, {52, 51, 50, 44, 43, 42, 41, 40, 38, 36}, {48, 47, 46, 43, 41, 39, 37}, {47, 40, 34, 32}, {53, 52, 50, 48, 47, 46, 45, 44, 43, 42, 41, 40}, {54, 53, 51, 46, 41, 40, 35}, {54, 53, 52, 50, 49, 48, 47, 46, 45, 44, 43, 41}, {53, 50, 45, 44, 43, 42, 41}, {60, 56, 53, 52, 50, 48, 47, 45, 42}, {64, 56, 54, 53, 52, 50, 48, 45, 41}, {60, 55, 52, 50, 49, 48, 44, 43}, {64, 60, 59, 56, 55, 54, 53, 45}, {60, 57, 52, 51, 50, 42}, {64, 60, 59, 53, 48, 47, 46}, {64, 54, 53, 49, 45, 44}, {72, 64, 63, 62, 61, 60, 59, 58, 57}, {74, 72, 67, 66, 62, 60, 59, 55}, {69, 64, 59, 54, 49}, {69, 67, 64, 63, 62, 61, 58, 57}, {72, 69, 63, 61, 57, 56}, {72, 69, 68, 63, 61, 58, 57}, {69, 67, 62, 61, 58, 57}, {76, 72, 69, 68, 67, 66, 63, 58}, {75, 74, 72, 69, 68, 58, 57}, {100, 76, 72, 71, 68, 65, 63, 61}, {76, 66, 65, 63, 62, 61}, {100, 76, 75, 74, 71, 70, 69, 68, 66, 65}, {100, 76, 74, 73, 72, 69, 68, 66, 63}, {76, 75, 70, 69, 68, 67, 66, 65}, {76, 75, 68, 66, 58}, {76, 69, 63, 58}, {76, 74, 71, 62}, {100, 88, 76, 70, 66, 65}, {100, 88, 82, 78, 71, 70, 65}, {100, 88, 82, 80, 78, 77, 73, 71, 70}, {100, 83, 82, 77, 75, 71, 69}, {88, 83, 77, 74, 73, 70}, {100, 83, 77, 75, 73, 68}, {83, 82, 78, 77, 75, 70}, {100, 85, 82, 80, 78, 70}, {84, 83, 80, 79, 77, 73}, {90, 85, 84, 82, 81, 80, 79, 78}, {100, 99, 90, 84, 83, 81, 79}, {99, 89, 88, 87, 84, 81, 80}, {90, 89, 87, 84, 81, 80, 78}, {99, 98, 90, 84, 81, 79}, {98, 97, 90, 86, 84, 79}, {99, 98, 97, 96, 90, 86, 85, 82}, {99, 98, 96, 90, 85, 81}, {96, 86, 82, 80, 78}, {99, 97, 96, 90, 87, 86, 85}, {99, 98, 97, 96, 86, 85}, {97, 96, 86, 85}, {99, 98, 97, 95, 94, 93, 92, 91}, {96, 94, 89, 87}, {98, 97, 94, 93, 92, 91}, {97, 94, 86}, {95, 94, 93, 92, 91}, {98, 96, 94, 92, 91}, {96, 95, 94, 92}, {95, 94, 93, 91}, {93, 92, 91}, {95, 93, 91}, {93, 90}, {92, 91}, {91}, {}, {}, {}, {}, {}, {}, {}, {}, {}, {}];
n_opt = 300;
dur = [4, 16, 27, 18, 19, 20, 4, 15, 21, 4, 19, 27, 10, 17, 21, 1, 16, 20, 3, 8, 20, 1, 12, 30, 13, 21, 27, 7, 13, 19, 15, 19, 27, 1, 9, 28, 14, 19, 29, 7, 26, 29, 5, 10, 26, 3, 7, 24, 11, 18, 24, 14, 15, 26, 9, 11, 13, 19, 21, 30, 9, 19, 30, 7, 9, 10, 8, 14, 27, 21, 25, 26, 16, 21, 25, 11, 12, 20, 13, 15, 25, 2, 16, 28, 2, 12, 24, 2, 12, 22, 2, 10, 22, 4, 12, 18, 1, 4, 5, 6, 10, 19, 2, 14, 27, 7, 13, 14, 5, 20, 23, 2, 6, 10, 3, 4, 17, 10, 13, 14, 2, 3, 9, 4, 5, 30, 1, 8, 22, 8, 14, 29, 3, 11, 25, 2, 28, 29, 16, 22, 27, 5, 21, 28, 3, 7, 30, 21, 22, 26, 26, 29, 30, 6, 23, 27, 8, 14, 19, 5, 6, 21, 20, 23, 28, 4, 17, 29, 6, 22, 29, 3, 17, 24, 5, 8, 25, 2, 15, 29, 11, 18, 28, 25, 26, 28, 7, 12, 25, 21, 28, 30, 14, 23, 28, 11, 13, 29, 2, 13, 17, 11, 24, 27, 5, 9, 28, 1, 21, 30, 2, 11, 16, 5, 22, 25, 12, 15, 25, 1, 4, 25, 9, 10, 26, 4, 5, 30, 2, 13, 16, 2, 24, 27, 2, 6, 26, 7, 17, 27, 2, 3, 25, 16, 20, 29, 2, 13, 28, 8, 16, 28, 12, 19, 24, 5, 19, 22, 8, 9, 30, 2, 4, 18, 7, 16, 30, 9, 10, 19, 6, 13, 16, 5, 26, 29, 12, 15, 27, 9, 13, 29, 2, 6, 22, 13, 19, 26, 11, 12, 22, 11, 15, 30, 12, 13, 24, 6, 12, 21];
rreq = [|3, 3, 3, 2, 2, 2, 4, 4, 4, 4, 3, 2, 5, 3, 1, 4, 4, 4, 1, 1, 1, 3, 3, 3, 4, 3, 3, 3, 3, 2, 1, 1, 1, 3, 3, 3, 2, 1, 1, 4, 2, 2, 1, 1, 1, 1, 1, 1, 4, 4, 4, 3, 3, 3, 5, 3, 2, 1, 1, 1, 4, 3, 1, 4, 2, 1, 5, 4, 3, 5, 4, 4, 3, 3, 3, 1, 1, 1, 5, 4, 3, 4, 3, 3, 2, 2, 2, 1, 1, 1, 2, 1, 1, 4, 3, 3, 3, 3, 2, 3, 1, 1, 4, 3, 3, 1, 1, 1, 4, 3, 2, 4, 4, 4, 1, 1, 1, 5, 5, 5, 3, 3, 3, 3, 3, 3, 2, 2, 1, 3, 1, 1, 1, 1, 1, 4, 3, 2, 1, 1, 1, 2, 2, 1, 3, 2, 1, 4, 3, 1, 3, 3, 3, 2, 2, 2, 1, 1, 1, 4, 3, 3, 3, 3, 2, 2, 2, 2, 3, 2, 2, 4, 3, 2, 3, 3, 2, 3, 2, 2, 5, 4, 4, 3, 3, 1, 5, 2, 2, 5, 4, 4, 2, 2, 1, 4, 3, 3, 2, 2, 2, 3, 2, 2, 2, 1, 1, 2, 2, 2, 2, 2, 1, 3, 3, 2, 5, 5, 5, 5, 2, 2, 4, 4, 4, 5, 5, 5, 3, 3, 3, 1, 1, 1, 3, 2, 2, 3, 2, 2, 4, 3, 2, 3, 3, 1, 2, 1, 1, 4, 3, 3, 3, 2, 2, 3, 1, 1, 4, 3, 3, 3, 2, 2, 5, 3, 2, 2, 2, 2, 5, 5, 5, 2, 2, 2, 3, 2, 2, 4, 4, 4, 4, 4, 4, 2, 1, 1, 2, 2, 2, 4, 2, 2, 4, 4, 3, 4, 3, 3
 |2, 1, 1, 4, 4, 4, 2, 2, 2, 3, 2, 2, 5, 3, 3, 5, 5, 5, 5, 4, 4, 4, 3, 1, 2, 1, 1, 5, 3, 3, 3, 3, 2, 3, 3, 3, 4, 2, 2, 2, 2, 2, 3, 2, 2, 1, 1, 1, 3, 3, 3, 5, 5, 5, 3, 3, 3, 5, 5, 5, 3, 2, 2, 2, 2, 1, 1, 1, 1, 2, 1, 1, 3, 3, 3, 3, 3, 3, 4, 4, 4, 5, 5, 5, 2, 1, 1, 4, 3, 3, 3, 2, 2, 3, 2, 2, 5, 3, 3, 4, 4, 4, 3, 3, 3, 1, 1, 1, 5, 3, 3, 3, 3, 2, 2, 1, 1, 2, 2, 2, 2, 2, 1, 4, 3, 1, 4, 3, 3, 4, 2, 1, 3, 2, 1, 4, 3, 3, 4, 3, 2, 4, 2, 2, 5, 4, 4, 4, 3, 3, 4, 3, 3, 5, 2, 1, 5, 5, 5, 3, 3, 3, 2, 2, 2, 4, 3, 2, 2, 2, 2, 4, 3, 3, 3, 3, 2, 4, 3, 2, 2, 2, 2, 2, 2, 2, 3, 3, 2, 3, 2, 2, 2, 2, 2, 4, 4, 4, 3, 2, 2, 1, 1, 1, 3, 3, 3, 1, 1, 1, 2, 1, 1, 4, 3, 2, 1, 1, 1, 4, 3, 2, 4, 4, 3, 4, 3, 1, 4, 2, 1, 3, 2, 2, 3, 2, 2, 5, 5, 5, 3, 2, 2, 4, 3, 3, 1, 1, 1, 3, 3, 3, 4, 3, 3, 4, 2, 1, 3, 2, 2, 3, 3, 3, 3, 2, 2, 4, 4, 4, 3, 2, 1, 4, 3, 1, 2, 1, 1, 4, 3, 3, 5, 3, 2, 4, 3, 2, 3, 2, 2, 5, 3, 2, 1, 1, 1, 4, 4, 4
 |3, 2, 2, 4, 4, 4, 5, 4, 4, 4, 4, 4, 5, 3, 3, 5, 3, 3, 2, 2, 2, 4, 3, 3, 1, 1, 1, 4, 4, 3, 4, 3, 2, 2, 2, 2, 2, 2, 2, 5, 5, 5, 2, 1, 1, 2, 2, 2, 3, 2, 1, 5, 4, 2, 5, 3, 3, 5, 4, 4, 3, 2, 1, 1, 1, 1, 3, 3, 1, 2, 2, 2, 3, 2, 2, 4, 3, 3, 4, 4, 4, 2, 2, 2, 4, 3, 1, 2, 1, 1, 5, 4, 3, 3, 2, 2, 5, 5, 5, 4, 3, 3, 2, 2, 1, 4, 3, 2, 4, 3, 2, 3, 3, 2, 4, 4, 4, 1, 1, 1, 2, 2, 2, 4, 3, 1, 5, 5, 5, 3, 3, 2, 5, 3, 3, 4, 4, 4, 4, 3, 3, 4, 3, 2, 4, 2, 2, 2, 2, 2, 5, 4, 3, 3, 3, 3, 4, 4, 2, 4, 4, 4, 4, 4, 4, 2, 2, 2, 1, 1, 1, 4, 3, 3, 4, 4, 4, 3, 3, 2, 5, 3, 3, 4, 3, 3, 2, 2, 1, 3, 3, 3, 3, 3, 2, 1, 1, 1, 3, 3, 3, 3, 2, 1, 5, 5, 5, 4, 3, 3, 2, 2, 2, 1, 1, 1, 3, 3, 1, 3, 2, 2, 3, 3, 3, 4, 4, 3, 4, 3, 2, 4, 4, 4, 4, 3, 1, 3, 2, 1, 4, 3, 3, 4, 3, 1, 2, 1, 1, 2, 2, 2, 3, 2, 2, 2, 2, 2, 2, 2, 2, 2, 2, 2, 3, 2, 2, 4, 4, 4, 3, 3, 3, 4, 3, 2, 4, 3, 3, 5, 2, 1, 3, 2, 2, 3, 3, 1, 4, 3, 1, 4, 3, 3, 2, 2, 1, 5, 3, 3
 |3, 3, 3, 2, 2, 2, 2, 1, 1, 3, 1, 1, 4, 3, 3, 4, 2, 2, 2, 2, 2, 1, 1, 1, 4, 3, 3, 3, 3, 3, 2, 2, 2, 4, 4, 4, 3, 2, 2, 2, 2, 1, 4, 3, 2, 5, 4, 4, 4, 2, 2, 3, 2, 1, 3, 3, 2, 4, 2, 1, 3, 2, 1, 1, 1, 1, 4, 4, 4, 3, 2, 2, 2, 1, 1, 2, 1, 1, 3, 2, 1, 4, 4, 4, 4, 4, 4, 3, 3, 3, 2, 2, 2, 5, 3, 2, 3, 3, 3, 4, 4, 4, 4, 4, 4, 4, 2, 2, 4, 3, 3, 5, 4, 3, 5, 4, 4, 1, 1, 1, 3, 3, 3, 2, 1, 1, 4, 4, 4, 5, 4, 4, 3, 2, 2, 3, 3, 3, 4, 3, 3, 3, 3, 3, 4, 2, 2, 1, 1, 1, 5, 3, 3, 3, 2, 2, 5, 3, 3, 2, 1, 1, 4, 4, 4, 3, 2, 2, 5, 3, 2, 3, 3, 3, 2, 1, 1, 3, 2, 2, 4, 2, 2, 3, 2, 1, 3, 3, 2, 3, 2, 2, 3, 2, 2, 5, 5, 5, 4, 3, 3, 5, 5, 5, 3, 3, 3, 4, 4, 4, 3, 2, 2, 2, 2, 2, 4, 4, 4, 4, 3, 3, 3, 2, 2, 2, 1, 1, 5, 3, 1, 4, 3, 3, 4, 3, 3, 1, 1, 1, 4, 4, 3, 2, 2, 2, 2, 2, 2, 2, 2, 2, 3, 3, 3, 2, 2, 1, 1, 1, 1, 3, 2, 2, 1, 1, 1, 2, 1, 1, 3, 3, 3, 3, 2, 2, 3, 2, 1, 5, 3, 2, 1, 1, 1, 5, 3, 2, 5, 4, 4, 2, 1, 1, 4, 3, 3, 4, 3, 2
 |23, 22, 22, 11, 11, 10, 18, 18, 18, 23, 16, 10, 12, 8, 6, 17, 13, 10, 23, 13, 8, 12, 9, 7, 11, 9, 7, 9, 7, 7, 14, 14, 12, 12, 8, 4, 13, 7, 4, 25, 21, 17, 28, 27, 26, 5, 5, 4, 14, 14, 13, 20, 13, 10, 11, 10, 10, 21, 17, 11, 27, 25, 23, 21, 20, 17, 24, 23, 22, 22, 14, 8, 17, 13, 12, 18, 16, 15, 20, 18, 14, 23, 20, 11, 15, 15, 14, 29, 16, 9, 17, 17, 15, 19, 15, 12, 13, 13, 13, 24, 19, 15, 17, 15, 15, 30, 23, 20, 22, 21, 15, 27, 20, 12, 21, 21, 20, 12, 12, 12, 28, 27, 26, 20, 17, 13, 20, 17, 11, 25, 12, 5, 23, 20, 20, 19, 9, 8, 22, 20, 18, 22, 12, 8, 25, 25, 23, 11, 8, 6, 17, 16, 14, 11, 8, 6, 21, 21, 21, 21, 17, 15, 26, 25, 21, 30, 23, 18, 9, 8, 8, 21, 16, 11, 20, 16, 14, 15, 13, 11, 24, 24, 24, 22, 15, 13, 28, 21, 19, 17, 12, 4, 19, 18, 18, 22, 22, 21, 20, 17, 16, 9, 6, 5, 15, 9, 7, 7, 5, 4, 15, 14, 10, 16, 15, 13, 13, 13, 12, 17, 14, 7, 26, 20, 14, 29, 22, 17, 12, 9, 6, 15, 11, 11, 15, 9, 6, 8, 7, 7, 18, 16, 1, 23, 23, 23, 13, 11, 9, 12, 11, 9, 14, 11, 10, 16, 11, 5, 19, 16, 3, 7, 5, 5, 25, 17, 11, 13, 13, 13, 20, 20, 16, 26, 23, 19, 15, 13, 8, 19, 13, 10, 19, 15, 11, 26, 25, 24, 15, 15, 15, 25, 17, 12, 14, 12, 6, 25, 19, 11
 |5, 2, 1, 12, 11, 9, 25, 20, 3, 9, 7, 7, 28, 27, 27, 27, 27, 26, 27, 21, 21, 26, 26, 22, 18, 16, 10, 22, 19, 15, 21, 14, 10, 13, 10, 10, 21, 19, 18, 27, 12, 5, 27, 25, 21, 5, 3, 3, 15, 11, 9, 5, 4, 3, 19, 14, 7, 20, 11, 10, 26, 19, 9, 16, 12, 5, 23, 13, 5, 18, 16, 14, 7, 6, 5, 26, 23, 17, 9, 7, 4, 15, 12, 10, 17, 15, 15, 18, 16, 13, 26, 20, 18, 28, 19, 12, 28, 20, 18, 13, 12, 10, 9, 6, 2, 24, 18, 13, 8, 6, 4, 25, 23, 20, 22, 17, 11, 15, 14, 5, 16, 14, 8, 12, 11, 9, 9, 8, 8, 29, 21, 16, 19, 17, 5, 10, 10, 8, 21, 15, 11, 9, 9, 9, 18, 14, 13, 28, 24, 17, 14, 10, 4, 10, 5, 5, 12, 10, 3, 21, 10, 2, 15, 13, 6, 15, 12, 5, 14, 13, 10, 22, 19, 18, 14, 10, 6, 20, 10, 9, 11, 6, 4, 30, 26, 25, 13, 10, 7, 24, 23, 23, 23, 23, 22, 5, 4, 4, 9, 8, 7, 9, 4, 4, 23, 21, 12, 8, 7, 5, 21, 12, 10, 22, 20, 10, 16, 12, 5, 22, 19, 6, 19, 14, 14, 19, 18, 15, 14, 14, 13, 26, 17, 8, 9, 7, 7, 29, 28, 27, 4, 4, 4, 25, 22, 21, 26, 25, 22, 4, 4, 3, 27, 24, 19, 25, 23, 20, 24, 17, 12, 14, 8, 7, 9, 7, 6, 26, 17, 7, 20, 19, 17, 19, 13, 10, 18, 9, 2, 16, 14, 12, 8, 8, 3, 12, 8, 6, 18, 16, 14, 12, 10, 8, 27, 26, 25, 22, 20, 19
 |13, 11, 9, 17, 12, 10, 17, 15, 14, 9, 7, 6, 29, 21, 21, 29, 19, 17, 22, 16, 12, 22, 16, 8, 26, 23, 21, 15, 14, 14, 9, 8, 8, 6, 4, 3, 15, 9, 8, 23, 20, 19, 11, 10, 8, 22, 17, 15, 18, 13, 13, 21, 17, 11, 8, 5, 5, 6, 3, 2, 24, 16, 7, 23, 14, 10, 17, 13, 6, 23, 22, 17, 5, 4, 3, 27, 23, 21, 16, 12, 8, 25, 18, 13, 28, 20, 20, 21, 16, 7, 20, 19, 15, 22, 22, 14, 26, 21, 17, 20, 16, 8, 16, 14, 5, 17, 15, 11, 12, 9, 8, 5, 5, 4, 23, 19, 11, 27, 22, 17, 19, 18, 18, 22, 16, 13, 21, 15, 5, 22, 15, 5, 14, 13, 12, 16, 14, 13, 11, 6, 3, 21, 20, 16, 16, 15, 13, 19, 15, 11, 9, 8, 6, 22, 16, 11, 17, 16, 16, 13, 12, 11, 22, 12, 6, 14, 14, 12, 15, 13, 4, 18, 10, 7, 16, 10, 7, 19, 17, 16, 20, 17, 15, 22, 15, 10, 16, 14, 9, 21, 16, 9, 9, 7, 7, 18, 11, 4, 7, 6, 4, 23, 23, 18, 28, 28, 27, 13, 7, 6, 4, 2, 1, 17, 9, 7, 28, 15, 9, 16, 13, 6, 22, 14, 5, 19, 9, 2, 20, 13, 5, 28, 28, 28, 25, 20, 13, 24, 22, 14, 9, 6, 5, 18, 15, 10, 26, 18, 11, 5, 5, 3, 21, 19, 19, 27, 26, 24, 18, 13, 9, 20, 18, 16, 21, 18, 17, 19, 13, 6, 24, 12, 5, 14, 10, 10, 13, 11, 9, 28, 27, 25, 23, 15, 14, 13, 11, 6, 22, 19, 13, 16, 16, 8, 6, 6, 6, 14, 13, 9
 |25, 22, 20, 19, 14, 5, 20, 19, 15, 15, 13, 9, 22, 20, 11, 17, 16, 12, 10, 7, 5, 20, 12, 10, 3, 2, 2, 23, 13, 4, 6, 5, 4, 21, 19, 18, 11, 8, 7, 16, 11, 9, 16, 11, 9, 27, 24, 20, 18, 17, 12, 27, 22, 20, 12, 11, 9, 13, 11, 11, 22, 21, 18, 12, 10, 5, 26, 16, 13, 20, 18, 14, 5, 4, 1, 22, 19, 12, 24, 22, 21, 13, 13, 12, 26, 23, 22, 29, 26, 25, 23, 21, 17, 16, 10, 10, 17, 16, 11, 26, 17, 13, 3, 2, 2, 17, 14, 12, 13, 12, 9, 26, 22, 11, 9, 7, 7, 24, 23, 23, 13, 13, 10, 16, 13, 9, 23, 22, 19, 25, 24, 22, 19, 14, 9, 5, 4, 3, 27, 19, 10, 26, 24, 20, 12, 9, 6, 26, 25, 25, 11, 9, 5, 25, 19, 16, 20, 20, 19, 30, 29, 28, 23, 22, 22, 25, 17, 15, 17, 16, 14, 20, 17, 16, 12, 9, 6, 7, 4, 1, 22, 19, 14, 19, 17, 16, 21, 19, 4, 21, 18, 17, 27, 26, 25, 8, 6, 6, 30, 22, 21, 2, 1, 1, 29, 29, 29, 29, 28, 28, 20, 15, 11, 26, 21, 10, 16, 16, 15, 11, 11, 11, 10, 10, 10, 10, 9, 8, 17, 14, 4, 20, 19, 19, 22, 21, 21, 18, 12, 11, 15, 7, 3, 8, 7, 2, 30, 24, 19, 16, 8, 2, 26, 20, 15, 10, 9, 9, 27, 25, 20, 15, 13, 12, 26, 20, 11, 22, 15, 13, 29, 29, 29, 22, 15, 13, 24, 23, 16, 23, 18, 10, 22, 19, 17, 25, 24, 20, 12, 8, 6, 17, 13, 2, 26, 18, 13, 17, 15, 14|];